[[52, 53, 54, 63, 62, 61, 72, 71, 70, 69, 80, 81, 79, 88, 89, 90, 99, 98, 97, 96, 87, 86, 95], [94, 93, 92, 91, 82, 83, 73, 84, 85, 76, 77, 78, 68, 67, 75, 66, 74, 64], [65, 56, 57, 58, 59, 49, 40, 39, 48, 47, 55, 46, 38, 37, 29, 30, 31, 28], [19, 20, 21, 22, 13, 12, 11, 10, 2, 3, 4, 14, 5, 6, 7, 8], [9, 18, 17, 27, 16, 15, 23, 24, 25, 26, 35, 36, 44, 34, 43, 33, 32, 41, 42, 45, 51, 50, 60]]